Minimize
	value: tt

Subject to
tt + 1024 s_1_1 > 0.0
tt - t_1_1 - 1037.583691 s_1_1 + 13.583691 s_1_7 > -999.327400
tt + 1024 s_2_1 > 0.0
tt - t_2_1 - 1038.895917 s_2_1 + 14.895917 s_2_7 > -975.486944
tt + 1024 s_1_2 > 0.0
tt - t_1_2 - 1030.791846 s_1_2 + 6.791846 s_1_7 > -999.467100
tt + 1024 s_2_2 > 0.0
tt - t_2_2 - 1031.447958 s_2_2 + 7.447958 s_2_7 > -975.623500
tt + 1024 s_1_3 > 0.0
tt - t_1_3 - 1044.375537 s_1_3 + 20.375537 s_1_7 > -1018.475300
tt + 1024 s_2_3 > 0.0
tt - t_2_3 - 1046.343875 s_2_3 + 22.343875 s_2_7 > -1017.205175
tt + 1024 s_1_4 > 0.0
tt - t_1_4 - 1030.791846 s_1_4 + 6.791846 s_1_7 > -1014.217100
tt + 1024 s_2_4 > 0.0
tt - t_2_4 - 1031.447958 s_2_4 + 7.447958 s_2_7 > -1013.762950
tt + 1024 s_1_5 > 0.0
tt - t_1_5 - 1034.187768 s_1_5 + 10.187768 s_1_8 > -1012.976600
tt + 1024 s_2_5 > 0.0
tt - t_2_5 - 1035.171938 s_2_5 + 11.171938 s_2_8 > -1000.244356
tt + 1024 s_1_6 > 0.0
tt - t_1_6 - 1146.253222 s_1_6 + 122.253222 s_1_1 > -1020.644800
tt + 1024 s_2_6 > 0.0
tt - t_2_6 - 1158.063251 s_2_6 + 134.063251 s_2_1 > -1018.618700
tt + 1024 s_1_7 > 0.0
tt - t_1_7 - 1024.000000 s_1_7 > -980.828800
tt + 1024 s_2_7 > 0.0
tt - t_2_7 - 1024.000000 s_2_7 > -975.592900
tt + 1024 s_1_8 > 0.0
tt - t_1_8 - 1024.000000 s_1_8 > -983.318700
tt + 1024 s_2_8 > 0.0
tt - t_2_8 - 1024.000000 s_2_8 > -976.845400
s_1_1 + s_2_1  = 1
s_1_2 + s_2_2  = 1
s_1_3 + s_2_3  = 1
s_1_4 + s_2_4  = 1
s_1_5 + s_2_5  = 1
s_1_6 + s_2_6  = 1
s_1_7 + s_2_7  = 1
s_1_8 + s_2_8  = 1
s_1_1 + s_1_2 + 1024 r_1_1_2 >= 2
- s_1_1 - s_1_2 - 1024 r_1_1_2 >= -1025
t_1_1 - t_1_2 - 1024.000000 u_1_1_2 - 6.791846 s_1_2 + 6.791846 s_1_7 + 2048.000000 r_1_1_2 > -999.467100
s_2_1 + s_2_2 + 1024 r_2_1_2 >= 2
- s_2_1 - s_2_2 - 1024 r_2_1_2 >= -1025
t_2_1 - t_2_2 - 1024.000000 u_2_1_2 - 7.447958 s_2_2 + 7.447958 s_2_7 + 2048.000000 r_2_1_2 > -975.623500
s_1_1 + s_1_3 + 1024 r_1_1_3 >= 2
- s_1_1 - s_1_3 - 1024 r_1_1_3 >= -1025
t_1_1 - t_1_3 - 1024.000000 u_1_1_3 - 10.187768 s_1_3 + 10.187768 s_1_7 + 2048.000000 r_1_1_3 > -1018.475300
s_2_1 + s_2_3 + 1024 r_2_1_3 >= 2
- s_2_1 - s_2_3 - 1024 r_2_1_3 >= -1025
t_2_1 - t_2_3 - 1024.000000 u_2_1_3 - 11.171938 s_2_3 + 11.171938 s_2_7 + 2048.000000 r_2_1_3 > -1017.205175
s_1_1 + s_1_4 + 1024 r_1_1_4 >= 2
- s_1_1 - s_1_4 - 1024 r_1_1_4 >= -1025
t_1_1 - t_1_4 - 1024.000000 u_1_1_4 - 6.791846 s_1_4 + 6.791846 s_1_7 + 2048.000000 r_1_1_4 > -1014.217100
s_2_1 + s_2_4 + 1024 r_2_1_4 >= 2
- s_2_1 - s_2_4 - 1024 r_2_1_4 >= -1025
t_2_1 - t_2_4 - 1024.000000 u_2_1_4 - 7.447958 s_2_4 + 7.447958 s_2_7 + 2048.000000 r_2_1_4 > -1013.762950
s_1_1 + s_1_5 + 1024 r_1_1_5 >= 2
- s_1_1 - s_1_5 - 1024 r_1_1_5 >= -1025
t_1_1 - t_1_5 - 1024.000000 u_1_1_5 - 10.187768 s_1_5 + 10.187768 s_1_8 + 2048.000000 r_1_1_5 > -1012.976600
s_2_1 + s_2_5 + 1024 r_2_1_5 >= 2
- s_2_1 - s_2_5 - 1024 r_2_1_5 >= -1025
t_2_1 - t_2_5 - 1024.000000 u_2_1_5 - 11.171938 s_2_5 + 11.171938 s_2_8 + 2048.000000 r_2_1_5 > -1000.244356
t_1_6 - t_1_1 - 31.464446 s_1_1 + 6.791846 s_1_7 > 0.0
t_1_6 - t_2_1 - 55.961014 s_2_1 + 7.447958 s_2_7 > 0.0
t_2_6 - t_1_1 - 31.464446 s_1_1 + 6.791846 s_1_7 > 0.0
t_2_6 - t_2_1 - 55.961014 s_2_1 + 7.447958 s_2_7 > 0.0
t_1_1 - t_1_7 - 1024.000000 s_1_7 > -980.828800
t_1_1 - t_2_7 - 1024.000000 s_2_7 > -975.592900
t_2_1 - t_1_7 - 1024.000000 s_1_7 > -980.828800
t_2_1 - t_2_7 - 1024.000000 s_2_7 > -975.592900
t_1_1 - t_1_8 - 1024.000000 s_1_8 > -983.318700
t_1_1 - t_2_8 - 1024.000000 s_2_8 > -976.845400
t_2_1 - t_1_8 - 1024.000000 s_1_8 > -983.318700
t_2_1 - t_2_8 - 1024.000000 s_2_8 > -976.845400
s_1_2 + s_1_1 + 1024 r_1_1_2 >= 2
- s_1_2 - s_1_1 - 1024 r_1_1_2 >= -1025
t_1_2 - t_1_1 + 1024.000000 u_1_1_2 - 6.791846 s_1_1 + 6.791846 s_1_7 + 2048.000000 r_1_1_2 > 24.672600
s_2_2 + s_2_1 + 1024 r_2_1_2 >= 2
- s_2_2 - s_2_1 - 1024 r_2_1_2 >= -1025
t_2_2 - t_2_1 + 1024.000000 u_2_1_2 - 7.447958 s_2_1 + 7.447958 s_2_7 + 2048.000000 r_2_1_2 > 48.513056
s_1_2 + s_1_3 + 1024 r_1_2_3 >= 2
- s_1_2 - s_1_3 - 1024 r_1_2_3 >= -1025
t_1_2 - t_1_3 - 1024.000000 u_1_2_3 - 10.187768 s_1_3 + 10.187768 s_1_7 + 2048.000000 r_1_2_3 > -1018.475300
s_2_2 + s_2_3 + 1024 r_2_2_3 >= 2
- s_2_2 - s_2_3 - 1024 r_2_2_3 >= -1025
t_2_2 - t_2_3 - 1024.000000 u_2_2_3 - 11.171938 s_2_3 + 11.171938 s_2_7 + 2048.000000 r_2_2_3 > -1017.205175
s_1_2 + s_1_4 + 1024 r_1_2_4 >= 2
- s_1_2 - s_1_4 - 1024 r_1_2_4 >= -1025
t_1_2 - t_1_4 - 1024.000000 u_1_2_4 - 6.791846 s_1_4 + 6.791846 s_1_7 + 2048.000000 r_1_2_4 > -1014.217100
s_2_2 + s_2_4 + 1024 r_2_2_4 >= 2
- s_2_2 - s_2_4 - 1024 r_2_2_4 >= -1025
t_2_2 - t_2_4 - 1024.000000 u_2_2_4 - 7.447958 s_2_4 + 7.447958 s_2_7 + 2048.000000 r_2_2_4 > -1013.762950
s_1_2 + s_1_5 + 1024 r_1_2_5 >= 2
- s_1_2 - s_1_5 - 1024 r_1_2_5 >= -1025
t_1_2 - t_1_5 - 1024.000000 u_1_2_5 - 10.187768 s_1_5 + 10.187768 s_1_8 + 2048.000000 r_1_2_5 > -1012.976600
s_2_2 + s_2_5 + 1024 r_2_2_5 >= 2
- s_2_2 - s_2_5 - 1024 r_2_2_5 >= -1025
t_2_2 - t_2_5 - 1024.000000 u_2_2_5 - 11.171938 s_2_5 + 11.171938 s_2_8 + 2048.000000 r_2_2_5 > -1000.244356
t_1_6 - t_1_2 - 31.324746 s_1_2 + 6.791846 s_1_7 > 0.0
t_1_6 - t_2_2 - 55.824458 s_2_2 + 7.447958 s_2_7 > 0.0
t_2_6 - t_1_2 - 31.324746 s_1_2 + 6.791846 s_1_7 > 0.0
t_2_6 - t_2_2 - 55.824458 s_2_2 + 7.447958 s_2_7 > 0.0
t_1_2 - t_1_7 - 1024.000000 s_1_7 > -980.828800
t_1_2 - t_2_7 - 1024.000000 s_2_7 > -975.592900
t_2_2 - t_1_7 - 1024.000000 s_1_7 > -980.828800
t_2_2 - t_2_7 - 1024.000000 s_2_7 > -975.592900
s_1_2 + s_1_8 + 1024 r_1_2_8 >= 2
- s_1_2 - s_1_8 - 1024 r_1_2_8 >= -1025
t_1_2 - t_1_8 - 1024.000000 u_1_2_8 + 2048.000000 r_1_2_8 > -983.318700
s_2_2 + s_2_8 + 1024 r_2_2_8 >= 2
- s_2_2 - s_2_8 - 1024 r_2_2_8 >= -1025
t_2_2 - t_2_8 - 1024.000000 u_2_2_8 + 2048.000000 r_2_2_8 > -976.845400
s_1_3 + s_1_1 + 1024 r_1_1_3 >= 2
- s_1_3 - s_1_1 - 1024 r_1_1_3 >= -1025
t_1_3 - t_1_1 + 1024.000000 u_1_1_3 - 6.791846 s_1_1 + 6.791846 s_1_7 + 2048.000000 r_1_1_3 > 24.672600
s_2_3 + s_2_1 + 1024 r_2_1_3 >= 2
- s_2_3 - s_2_1 - 1024 r_2_1_3 >= -1025
t_2_3 - t_2_1 + 1024.000000 u_2_1_3 - 7.447958 s_2_1 + 7.447958 s_2_7 + 2048.000000 r_2_1_3 > 48.513056
s_1_3 + s_1_2 + 1024 r_1_2_3 >= 2
- s_1_3 - s_1_2 - 1024 r_1_2_3 >= -1025
t_1_3 - t_1_2 + 1024.000000 u_1_2_3 - 6.791846 s_1_2 + 6.791846 s_1_7 + 2048.000000 r_1_2_3 > 24.532900
s_2_3 + s_2_2 + 1024 r_2_2_3 >= 2
- s_2_3 - s_2_2 - 1024 r_2_2_3 >= -1025
t_2_3 - t_2_2 + 1024.000000 u_2_2_3 - 7.447958 s_2_2 + 7.447958 s_2_7 + 2048.000000 r_2_2_3 > 48.376500
s_1_3 + s_1_4 + 1024 r_1_3_4 >= 2
- s_1_3 - s_1_4 - 1024 r_1_3_4 >= -1025
t_1_3 - t_1_4 - 1024.000000 u_1_3_4 - 6.791846 s_1_4 + 6.791846 s_1_7 + 2048.000000 r_1_3_4 > -1014.217100
s_2_3 + s_2_4 + 1024 r_2_3_4 >= 2
- s_2_3 - s_2_4 - 1024 r_2_3_4 >= -1025
t_2_3 - t_2_4 - 1024.000000 u_2_3_4 - 7.447958 s_2_4 + 7.447958 s_2_7 + 2048.000000 r_2_3_4 > -1013.762950
s_1_3 + s_1_5 + 1024 r_1_3_5 >= 2
- s_1_3 - s_1_5 - 1024 r_1_3_5 >= -1025
t_1_3 - t_1_5 - 1024.000000 u_1_3_5 - 10.187768 s_1_5 + 10.187768 s_1_8 + 2048.000000 r_1_3_5 > -1012.976600
s_2_3 + s_2_5 + 1024 r_2_3_5 >= 2
- s_2_3 - s_2_5 - 1024 r_2_3_5 >= -1025
t_2_3 - t_2_5 - 1024.000000 u_2_3_5 - 11.171938 s_2_5 + 11.171938 s_2_8 + 2048.000000 r_2_3_5 > -1000.244356
t_1_6 - t_1_3 - 15.712468 s_1_3 + 10.187768 s_1_7 > 0.0
t_1_6 - t_2_3 - 17.966763 s_2_3 + 11.171938 s_2_7 > 0.0
t_2_6 - t_1_3 - 15.712468 s_1_3 + 10.187768 s_1_7 > 0.0
t_2_6 - t_2_3 - 17.966763 s_2_3 + 11.171938 s_2_7 > 0.0
t_1_3 - t_1_7 - 1024.000000 s_1_7 > -980.828800
t_1_3 - t_2_7 - 1024.000000 s_2_7 > -975.592900
t_2_3 - t_1_7 - 1024.000000 s_1_7 > -980.828800
t_2_3 - t_2_7 - 1024.000000 s_2_7 > -975.592900
t_1_3 - t_1_8 - 1024.000000 s_1_8 > -983.318700
t_1_3 - t_2_8 - 1024.000000 s_2_8 > -976.845400
t_2_3 - t_1_8 - 1024.000000 s_1_8 > -983.318700
t_2_3 - t_2_8 - 1024.000000 s_2_8 > -976.845400
s_1_4 + s_1_1 + 1024 r_1_1_4 >= 2
- s_1_4 - s_1_1 - 1024 r_1_1_4 >= -1025
t_1_4 - t_1_1 + 1024.000000 u_1_1_4 - 6.791846 s_1_1 + 6.791846 s_1_7 + 2048.000000 r_1_1_4 > 24.672600
s_2_4 + s_2_1 + 1024 r_2_1_4 >= 2
- s_2_4 - s_2_1 - 1024 r_2_1_4 >= -1025
t_2_4 - t_2_1 + 1024.000000 u_2_1_4 - 7.447958 s_2_1 + 7.447958 s_2_7 + 2048.000000 r_2_1_4 > 48.513056
s_1_4 + s_1_2 + 1024 r_1_2_4 >= 2
- s_1_4 - s_1_2 - 1024 r_1_2_4 >= -1025
t_1_4 - t_1_2 + 1024.000000 u_1_2_4 - 6.791846 s_1_2 + 6.791846 s_1_7 + 2048.000000 r_1_2_4 > 24.532900
s_2_4 + s_2_2 + 1024 r_2_2_4 >= 2
- s_2_4 - s_2_2 - 1024 r_2_2_4 >= -1025
t_2_4 - t_2_2 + 1024.000000 u_2_2_4 - 7.447958 s_2_2 + 7.447958 s_2_7 + 2048.000000 r_2_2_4 > 48.376500
s_1_4 + s_1_3 + 1024 r_1_3_4 >= 2
- s_1_4 - s_1_3 - 1024 r_1_3_4 >= -1025
t_1_4 - t_1_3 + 1024.000000 u_1_3_4 - 10.187768 s_1_3 + 10.187768 s_1_7 + 2048.000000 r_1_3_4 > 5.524700
s_2_4 + s_2_3 + 1024 r_2_3_4 >= 2
- s_2_4 - s_2_3 - 1024 r_2_3_4 >= -1025
t_2_4 - t_2_3 + 1024.000000 u_2_3_4 - 11.171938 s_2_3 + 11.171938 s_2_7 + 2048.000000 r_2_3_4 > 6.794825
s_1_4 + s_1_5 + 1024 r_1_4_5 >= 2
- s_1_4 - s_1_5 - 1024 r_1_4_5 >= -1025
t_1_4 - t_1_5 - 1024.000000 u_1_4_5 - 10.187768 s_1_5 + 10.187768 s_1_8 + 2048.000000 r_1_4_5 > -1012.976600
s_2_4 + s_2_5 + 1024 r_2_4_5 >= 2
- s_2_4 - s_2_5 - 1024 r_2_4_5 >= -1025
t_2_4 - t_2_5 - 1024.000000 u_2_4_5 - 11.171938 s_2_5 + 11.171938 s_2_8 + 2048.000000 r_2_4_5 > -1000.244356
t_1_6 - t_1_4 - 16.574746 s_1_4 + 6.791846 s_1_7 > 0.0
t_1_6 - t_2_4 - 17.685008 s_2_4 + 7.447958 s_2_7 > 0.0
t_2_6 - t_1_4 - 16.574746 s_1_4 + 6.791846 s_1_7 > 0.0
t_2_6 - t_2_4 - 17.685008 s_2_4 + 7.447958 s_2_7 > 0.0
t_1_4 - t_1_7 - 1024.000000 s_1_7 > -980.828800
t_1_4 - t_2_7 - 1024.000000 s_2_7 > -975.592900
t_2_4 - t_1_7 - 1024.000000 s_1_7 > -980.828800
t_2_4 - t_2_7 - 1024.000000 s_2_7 > -975.592900
s_1_4 + s_1_8 + 1024 r_1_4_8 >= 2
- s_1_4 - s_1_8 - 1024 r_1_4_8 >= -1025
t_1_4 - t_1_8 - 1024.000000 u_1_4_8 + 2048.000000 r_1_4_8 > -983.318700
s_2_4 + s_2_8 + 1024 r_2_4_8 >= 2
- s_2_4 - s_2_8 - 1024 r_2_4_8 >= -1025
t_2_4 - t_2_8 - 1024.000000 u_2_4_8 + 2048.000000 r_2_4_8 > -976.845400
s_1_5 + s_1_1 + 1024 r_1_1_5 >= 2
- s_1_5 - s_1_1 - 1024 r_1_1_5 >= -1025
t_1_5 - t_1_1 + 1024.000000 u_1_1_5 - 6.791846 s_1_1 + 6.791846 s_1_7 + 2048.000000 r_1_1_5 > 24.672600
s_2_5 + s_2_1 + 1024 r_2_1_5 >= 2
- s_2_5 - s_2_1 - 1024 r_2_1_5 >= -1025
t_2_5 - t_2_1 + 1024.000000 u_2_1_5 - 7.447958 s_2_1 + 7.447958 s_2_7 + 2048.000000 r_2_1_5 > 48.513056
s_1_5 + s_1_2 + 1024 r_1_2_5 >= 2
- s_1_5 - s_1_2 - 1024 r_1_2_5 >= -1025
t_1_5 - t_1_2 + 1024.000000 u_1_2_5 - 6.791846 s_1_2 + 6.791846 s_1_7 + 2048.000000 r_1_2_5 > 24.532900
s_2_5 + s_2_2 + 1024 r_2_2_5 >= 2
- s_2_5 - s_2_2 - 1024 r_2_2_5 >= -1025
t_2_5 - t_2_2 + 1024.000000 u_2_2_5 - 7.447958 s_2_2 + 7.447958 s_2_7 + 2048.000000 r_2_2_5 > 48.376500
s_1_5 + s_1_3 + 1024 r_1_3_5 >= 2
- s_1_5 - s_1_3 - 1024 r_1_3_5 >= -1025
t_1_5 - t_1_3 + 1024.000000 u_1_3_5 - 10.187768 s_1_3 + 10.187768 s_1_7 + 2048.000000 r_1_3_5 > 5.524700
s_2_5 + s_2_3 + 1024 r_2_3_5 >= 2
- s_2_5 - s_2_3 - 1024 r_2_3_5 >= -1025
t_2_5 - t_2_3 + 1024.000000 u_2_3_5 - 11.171938 s_2_3 + 11.171938 s_2_7 + 2048.000000 r_2_3_5 > 6.794825
s_1_5 + s_1_4 + 1024 r_1_4_5 >= 2
- s_1_5 - s_1_4 - 1024 r_1_4_5 >= -1025
t_1_5 - t_1_4 + 1024.000000 u_1_4_5 - 6.791846 s_1_4 + 6.791846 s_1_7 + 2048.000000 r_1_4_5 > 9.782900
s_2_5 + s_2_4 + 1024 r_2_4_5 >= 2
- s_2_5 - s_2_4 - 1024 r_2_4_5 >= -1025
t_2_5 - t_2_4 + 1024.000000 u_2_4_5 - 7.447958 s_2_4 + 7.447958 s_2_7 + 2048.000000 r_2_4_5 > 10.237050
t_1_6 - t_1_5 - 21.211168 s_1_5 + 10.187768 s_1_8 > 0.0
t_1_6 - t_2_5 - 34.927582 s_2_5 + 11.171938 s_2_8 > 0.0
t_2_6 - t_1_5 - 21.211168 s_1_5 + 10.187768 s_1_8 > 0.0
t_2_6 - t_2_5 - 34.927582 s_2_5 + 11.171938 s_2_8 > 0.0
s_1_5 + s_1_7 + 1024 r_1_5_7 >= 2
- s_1_5 - s_1_7 - 1024 r_1_5_7 >= -1025
t_1_5 - t_1_7 - 1024.000000 u_1_5_7 + 2048.000000 r_1_5_7 > -980.828800
s_2_5 + s_2_7 + 1024 r_2_5_7 >= 2
- s_2_5 - s_2_7 - 1024 r_2_5_7 >= -1025
t_2_5 - t_2_7 - 1024.000000 u_2_5_7 + 2048.000000 r_2_5_7 > -975.592900
t_1_5 - t_1_8 - 1024.000000 s_1_8 > -983.318700
t_1_5 - t_2_8 - 1024.000000 s_2_8 > -976.845400
t_2_5 - t_1_8 - 1024.000000 s_1_8 > -983.318700
t_2_5 - t_2_8 - 1024.000000 s_2_8 > -976.845400
t_1_6 - t_1_7 - 1024.000000 s_1_7 > -980.828800
t_1_6 - t_2_7 - 1024.000000 s_2_7 > -975.592900
t_2_6 - t_1_7 - 1024.000000 s_1_7 > -980.828800
t_2_6 - t_2_7 - 1024.000000 s_2_7 > -975.592900
s_1_7 + s_1_5 + 1024 r_1_5_7 >= 2
- s_1_7 - s_1_5 - 1024 r_1_5_7 >= -1025
t_1_7 - t_1_5 + 1024.000000 u_1_5_7 - 10.187768 s_1_5 + 10.187768 s_1_8 + 2048.000000 r_1_5_7 > 11.023400
s_2_7 + s_2_5 + 1024 r_2_5_7 >= 2
- s_2_7 - s_2_5 - 1024 r_2_5_7 >= -1025
t_2_7 - t_2_5 + 1024.000000 u_2_5_7 - 11.171938 s_2_5 + 11.171938 s_2_8 + 2048.000000 r_2_5_7 > 23.755644
s_1_7 + s_1_8 + 1024 r_1_7_8 >= 2
- s_1_7 - s_1_8 - 1024 r_1_7_8 >= -1025
t_1_7 - t_1_8 - 1024.000000 u_1_7_8 + 2048.000000 r_1_7_8 > -983.318700
s_2_7 + s_2_8 + 1024 r_2_7_8 >= 2
- s_2_7 - s_2_8 - 1024 r_2_7_8 >= -1025
t_2_7 - t_2_8 - 1024.000000 u_2_7_8 + 2048.000000 r_2_7_8 > -976.845400
s_1_8 + s_1_2 + 1024 r_1_2_8 >= 2
- s_1_8 - s_1_2 - 1024 r_1_2_8 >= -1025
t_1_8 - t_1_2 + 1024.000000 u_1_2_8 - 6.791846 s_1_2 + 6.791846 s_1_7 + 2048.000000 r_1_2_8 > 24.532900
s_2_8 + s_2_2 + 1024 r_2_2_8 >= 2
- s_2_8 - s_2_2 - 1024 r_2_2_8 >= -1025
t_2_8 - t_2_2 + 1024.000000 u_2_2_8 - 7.447958 s_2_2 + 7.447958 s_2_7 + 2048.000000 r_2_2_8 > 48.376500
s_1_8 + s_1_4 + 1024 r_1_4_8 >= 2
- s_1_8 - s_1_4 - 1024 r_1_4_8 >= -1025
t_1_8 - t_1_4 + 1024.000000 u_1_4_8 - 6.791846 s_1_4 + 6.791846 s_1_7 + 2048.000000 r_1_4_8 > 9.782900
s_2_8 + s_2_4 + 1024 r_2_4_8 >= 2
- s_2_8 - s_2_4 - 1024 r_2_4_8 >= -1025
t_2_8 - t_2_4 + 1024.000000 u_2_4_8 - 7.447958 s_2_4 + 7.447958 s_2_7 + 2048.000000 r_2_4_8 > 10.237050
s_1_8 + s_1_7 + 1024 r_1_7_8 >= 2
- s_1_8 - s_1_7 - 1024 r_1_7_8 >= -1025
t_1_8 - t_1_7 + 1024.000000 u_1_7_8 + 2048.000000 r_1_7_8 > 43.171200
s_2_8 + s_2_7 + 1024 r_2_7_8 >= 2
- s_2_8 - s_2_7 - 1024 r_2_7_8 >= -1025
t_2_8 - t_2_7 + 1024.000000 u_2_7_8 + 2048.000000 r_2_7_8 > 48.407100
Binary
s_1_1
s_2_1
s_1_2
s_2_2
s_1_3
s_2_3
s_1_4
s_2_4
s_1_5
s_2_5
s_1_6
s_2_6
s_1_7
s_2_7
s_1_8
s_2_8
u_1_1_2
r_1_1_2
u_2_1_2
r_2_1_2
u_1_1_3
r_1_1_3
u_2_1_3
r_2_1_3
u_1_1_4
r_1_1_4
u_2_1_4
r_2_1_4
u_1_1_5
r_1_1_5
u_2_1_5
r_2_1_5
u_1_2_3
r_1_2_3
u_2_2_3
r_2_2_3
u_1_2_4
r_1_2_4
u_2_2_4
r_2_2_4
u_1_2_5
r_1_2_5
u_2_2_5
r_2_2_5
u_1_2_8
r_1_2_8
u_2_2_8
r_2_2_8
u_1_3_4
r_1_3_4
u_2_3_4
r_2_3_4
u_1_3_5
r_1_3_5
u_2_3_5
r_2_3_5
u_1_4_5
r_1_4_5
u_2_4_5
r_2_4_5
u_1_4_8
r_1_4_8
u_2_4_8
r_2_4_8
u_1_5_7
r_1_5_7
u_2_5_7
r_2_5_7
u_1_7_8
r_1_7_8
u_2_7_8
r_2_7_8

End
